NAME: tsp35_25
COMMENT: 35-tsp problem (Padberg/Rinaldi)
TYPE: TSP
DIMENSION: 35
EDGE_WEIGHT_TYPE : EUC_2D
NODE_COORD_SECTION
1 30 9
2 4 39
3 19 6
4 20 35
5 16 35
6 5 9
7 3 8
8 13 31
9 35 36
10 3 15
11 12 10
12 25 22
13 8 21
14 11 25
15 32 5
16 34 37
17 31 0
18 22 36
19 17 29
20 34 29
21 29 1
22 33 28
23 37 26
24 2 1
25 27 10
26 26 7
27 31 28
28 2 23
29 29 6
30 36 27
31 36 34
32 32 30
33 18 37
34 30 24
35 26 38
